50	100	100	100
4	12	100
86	19	100
68	24	100
30	6	100
8	1	100
48	71	100
31	92	100
43	74	100
34	91	100
75	76	100
94	87	100
46	55	100
6	88	100
52	31	100
96	5	100
37	42	100
62	96	100
42	77	100
78	29	100
73	91	100
27	88	100
7	24	100
94	90	100
8	95	100
92	98	100
59	37	100
38	79	100
21	37	100
3	4	100
15	54	100
78	7	100
99	97	100
75	29	100
27	16	100
4	34	100
29	47	100
2	76	100
53	33	100
50	70	100
3	1	100
5	65	100
48	86	100
13	43	100
92	69	100
21	36	100
52	59	100
51	53	100
51	16	100
27	74	100
82	39	100
